100
1000
210
209
209
208
207
206
205
203
201
200
197
192
192
192
191
191
190
189
187
185
184
183
182
182
181
177
175
170
168
166
166
165
162
162
159
156
154
152
151
151
151
150
149
148
147
145
145
145
144
143
142
137
137
136
136
133
133
131
128
127
125
124
115
114
113
112
112
108
107
106
105
105
104
104
102
101
99
97
96
95
95
95
89
89
89
88
87
86
85
84
84
83
81
80
77
77
77
76
72
72
